p cnf 965 2478
51 -2 -1 0
-51 2 0
-51 1 0
52 -51 -3 0
-52 51 0
-52 3 0
53 -698 -699 0
-53 698 0
-53 699 0
54 -53 -6 0
-54 53 0
-54 6 0
55 -700 -701 0
-55 700 0
-55 701 0
56 -8 -702 0
-56 8 0
-56 702 0
57 -56 -698 0
-57 56 0
-57 698 0
58 -703 -55 0
-58 703 0
-58 55 0
59 -9 -702 0
-59 9 0
-59 702 0
60 -59 -704 0
-60 59 0
-60 704 0
61 -705 -58 0
-61 705 0
-61 58 0
62 -706 -11 0
-62 706 0
-62 11 0
63 -62 -6 0
-63 62 0
-63 6 0
64 -707 -61 0
-64 707 0
-64 61 0
65 -708 -13 0
-65 708 0
-65 13 0
66 -65 -709 0
-66 65 0
-66 709 0
67 -710 -64 0
-67 710 0
-67 64 0
68 -16 -3 0
-68 16 0
-68 3 0
69 -68 -17 0
-69 68 0
-69 17 0
70 -711 -67 0
-70 711 0
-70 67 0
71 -16 -712 0
-71 16 0
-71 712 0
72 -71 -8 0
-72 71 0
-72 8 0
73 -713 -70 0
-73 713 0
-73 70 0
74 -19 -714 0
-74 19 0
-74 714 0
75 -74 -715 0
-75 74 0
-75 715 0
76 -716 -73 0
-76 716 0
-76 73 0
77 -717 -13 0
-77 717 0
-77 13 0
78 -77 -718 0
-78 77 0
-78 718 0
79 -719 -76 0
-79 719 0
-79 76 0
80 -715 -720 0
-80 715 0
-80 720 0
81 -80 -10 0
-81 80 0
-81 10 0
82 -721 -79 0
-82 721 0
-82 79 0
83 -722 -723 0
-83 722 0
-83 723 0
84 -83 -25 0
-84 83 0
-84 25 0
85 -724 -82 0
-85 724 0
-85 82 0
86 -26 -5 0
-86 26 0
-86 5 0
87 -86 -725 0
-87 86 0
-87 725 0
88 -726 -85 0
-88 726 0
-88 85 0
89 -727 -728 0
-89 727 0
-89 728 0
90 -89 -729 0
-90 89 0
-90 729 0
91 -730 -88 0
-91 730 0
-91 88 0
92 -30 -718 0
-92 30 0
-92 718 0
93 -92 -31 0
-93 92 0
-93 31 0
94 -731 -91 0
-94 731 0
-94 91 0
95 -11 -8 0
-95 11 0
-95 8 0
96 -95 -27 0
-96 95 0
-96 27 0
97 -732 -94 0
-97 732 0
-97 94 0
98 -733 -709 0
-98 733 0
-98 709 0
99 -98 -33 0
-99 98 0
-99 33 0
100 -734 -97 0
-100 734 0
-100 97 0
101 -735 -736 0
-101 735 0
-101 736 0
102 -101 -24 0
-102 101 0
-102 24 0
103 -737 -100 0
-103 737 0
-103 100 0
104 -738 -31 0
-104 738 0
-104 31 0
105 -104 -36 0
-105 104 0
-105 36 0
106 -739 -103 0
-106 739 0
-106 103 0
107 -37 -25 0
-107 37 0
-107 25 0
108 -107 -27 0
-108 107 0
-108 27 0
109 -740 -106 0
-109 740 0
-109 106 0
110 -38 -18 0
-110 38 0
-110 18 0
111 -110 -39 0
-111 110 0
-111 39 0
112 -741 -109 0
-112 741 0
-112 109 0
113 -28 -742 0
-113 28 0
-113 742 0
114 -113 -729 0
-114 113 0
-114 729 0
115 -743 -112 0
-115 743 0
-115 112 0
116 -744 -25 0
-116 744 0
-116 25 0
117 -116 -745 0
-117 116 0
-117 745 0
118 -746 -115 0
-118 746 0
-118 115 0
119 -28 -11 0
-119 28 0
-119 11 0
120 -119 -747 0
-120 119 0
-120 747 0
121 -748 -118 0
-121 748 0
-121 118 0
122 -718 -742 0
-122 718 0
-122 742 0
123 -122 -20 0
-123 122 0
-123 20 0
124 -749 -121 0
-124 749 0
-124 121 0
125 -735 -750 0
-125 735 0
-125 750 0
126 -125 -15 0
-126 125 0
-126 15 0
127 -751 -124 0
-127 751 0
-127 124 0
128 -26 -1 0
-128 26 0
-128 1 0
129 -128 -752 0
-129 128 0
-129 752 0
130 -753 -127 0
-130 753 0
-130 127 0
131 -727 -699 0
-131 727 0
-131 699 0
132 -131 -41 0
-132 131 0
-132 41 0
133 -754 -130 0
-133 754 0
-133 130 0
134 -29 -26 0
-134 29 0
-134 26 0
135 -134 -715 0
-135 134 0
-135 715 0
136 -755 -133 0
-136 755 0
-136 133 0
137 -756 -18 0
-137 756 0
-137 18 0
138 -137 -39 0
-138 137 0
-138 39 0
139 -757 -136 0
-139 757 0
-139 136 0
140 -28 -14 0
-140 28 0
-140 14 0
141 -140 -745 0
-141 140 0
-141 745 0
142 -758 -139 0
-142 758 0
-142 139 0
143 -23 -702 0
-143 23 0
-143 702 0
144 -143 -39 0
-144 143 0
-144 39 0
145 -759 -142 0
-145 759 0
-145 142 0
146 -34 -30 0
-146 34 0
-146 30 0
147 -146 -760 0
-147 146 0
-147 760 0
148 -761 -145 0
-148 761 0
-148 145 0
149 -709 -706 0
-149 709 0
-149 706 0
150 -149 -33 0
-150 149 0
-150 33 0
151 -762 -148 0
-151 762 0
-151 148 0
152 -34 -722 0
-152 34 0
-152 722 0
153 -152 -709 0
-153 152 0
-153 709 0
154 -763 -151 0
-154 763 0
-154 151 0
155 -723 -12 0
-155 723 0
-155 12 0
156 -155 -18 0
-156 155 0
-156 18 0
157 -764 -154 0
-157 764 0
-157 154 0
158 -750 -699 0
-158 750 0
-158 699 0
159 -158 -42 0
-159 158 0
-159 42 0
160 -765 -157 0
-160 765 0
-160 157 0
161 -750 -4 0
-161 750 0
-161 4 0
162 -161 -747 0
-162 161 0
-162 747 0
163 -766 -160 0
-163 766 0
-163 160 0
164 -717 -699 0
-164 717 0
-164 699 0
165 -164 -715 0
-165 164 0
-165 715 0
166 -767 -163 0
-166 767 0
-166 163 0
167 -768 -32 0
-167 768 0
-167 32 0
168 -167 -745 0
-168 167 0
-168 745 0
169 -769 -166 0
-169 769 0
-169 166 0
170 -24 -742 0
-170 24 0
-170 742 0
171 -170 -5 0
-171 170 0
-171 5 0
172 -770 -169 0
-172 770 0
-172 169 0
173 -44 -20 0
-173 44 0
-173 20 0
174 -173 -17 0
-174 173 0
-174 17 0
175 -771 -172 0
-175 771 0
-175 172 0
176 -772 -714 0
-176 772 0
-176 714 0
177 -176 -704 0
-177 176 0
-177 704 0
178 -773 -175 0
-178 773 0
-178 175 0
179 -18 -750 0
-179 18 0
-179 750 0
180 -179 -31 0
-180 179 0
-180 31 0
181 -774 -178 0
-181 774 0
-181 178 0
182 -775 -728 0
-182 775 0
-182 728 0
183 -182 -776 0
-183 182 0
-183 776 0
184 -777 -181 0
-184 777 0
-184 181 0
185 -778 -738 0
-185 778 0
-185 738 0
186 -185 -709 0
-186 185 0
-186 709 0
187 -779 -184 0
-187 779 0
-187 184 0
188 -712 -702 0
-188 712 0
-188 702 0
189 -188 -10 0
-189 188 0
-189 10 0
190 -780 -187 0
-190 780 0
-190 187 0
191 -26 -4 0
-191 26 0
-191 4 0
192 -191 -48 0
-192 191 0
-192 48 0
193 -781 -190 0
-193 781 0
-193 190 0
194 -22 -11 0
-194 22 0
-194 11 0
195 -194 -15 0
-195 194 0
-195 15 0
196 -782 -193 0
-196 782 0
-196 193 0
197 -38 -717 0
-197 38 0
-197 717 0
198 -197 -7 0
-198 197 0
-198 7 0
199 -783 -196 0
-199 783 0
-199 196 0
200 -21 -3 0
-200 21 0
-200 3 0
201 -200 -42 0
-201 200 0
-201 42 0
202 -784 -199 0
-202 784 0
-202 199 0
203 -5 -4 0
-203 5 0
-203 4 0
204 -203 -768 0
-204 203 0
-204 768 0
205 -785 -202 0
-205 785 0
-205 202 0
206 -752 -22 0
-206 752 0
-206 22 0
207 -206 -786 0
-207 206 0
-207 786 0
208 -787 -205 0
-208 787 0
-208 205 0
209 -778 -5 0
-209 778 0
-209 5 0
210 -209 -43 0
-210 209 0
-210 43 0
211 -788 -208 0
-211 788 0
-211 208 0
212 -26 -720 0
-212 26 0
-212 720 0
213 -212 -39 0
-213 212 0
-213 39 0
214 -789 -211 0
-214 789 0
-214 211 0
215 -775 -11 0
-215 775 0
-215 11 0
216 -215 -712 0
-216 215 0
-216 712 0
217 -790 -214 0
-217 790 0
-217 214 0
218 -786 -47 0
-218 786 0
-218 47 0
219 -218 -10 0
-219 218 0
-219 10 0
220 -791 -217 0
-220 791 0
-220 217 0
221 -768 -16 0
-221 768 0
-221 16 0
222 -221 -745 0
-222 221 0
-222 745 0
223 -792 -220 0
-223 792 0
-223 220 0
224 -40 -3 0
-224 40 0
-224 3 0
225 -224 -41 0
-225 224 0
-225 41 0
226 -793 -223 0
-226 793 0
-226 223 0
227 -21 -699 0
-227 21 0
-227 699 0
228 -227 -706 0
-228 227 0
-228 706 0
229 -794 -226 0
-229 794 0
-229 226 0
230 -795 -736 0
-230 795 0
-230 736 0
231 -230 -15 0
-231 230 0
-231 15 0
232 -796 -229 0
-232 796 0
-232 229 0
233 -797 -735 0
-233 797 0
-233 735 0
234 -233 -6 0
-234 233 0
-234 6 0
235 -798 -232 0
-235 798 0
-235 232 0
236 -795 -742 0
-236 795 0
-236 742 0
237 -236 -42 0
-237 236 0
-237 42 0
238 -799 -235 0
-238 799 0
-238 235 0
239 -800 -39 0
-239 800 0
-239 39 0
240 -239 -10 0
-240 239 0
-240 10 0
241 -801 -238 0
-241 801 0
-241 238 0
242 -35 -31 0
-242 35 0
-242 31 0
243 -242 -32 0
-243 242 0
-243 32 0
244 -802 -241 0
-244 802 0
-244 241 0
245 -795 -756 0
-245 795 0
-245 756 0
246 -245 -803 0
-246 245 0
-246 803 0
247 -804 -244 0
-247 804 0
-247 244 0
248 -19 -747 0
-248 19 0
-248 747 0
249 -248 -42 0
-249 248 0
-249 42 0
250 -805 -247 0
-250 805 0
-250 247 0
251 -738 -21 0
-251 738 0
-251 21 0
252 -251 -806 0
-252 251 0
-252 806 0
253 -807 -250 0
-253 807 0
-253 250 0
254 -245 -42 0
-254 245 0
-254 42 0
255 -808 -253 0
-255 808 0
-255 253 0
256 -776 -35 0
-256 776 0
-256 35 0
257 -256 -33 0
-257 256 0
-257 33 0
258 -809 -255 0
-258 809 0
-258 255 0
259 -34 -742 0
-259 34 0
-259 742 0
260 -259 -40 0
-260 259 0
-260 40 0
261 -810 -258 0
-261 810 0
-261 258 0
262 -16 -720 0
-262 16 0
-262 720 0
263 -262 -27 0
-263 262 0
-263 27 0
264 -811 -261 0
-264 811 0
-264 261 0
265 -46 -32 0
-265 46 0
-265 32 0
266 -265 -812 0
-266 265 0
-266 812 0
267 -813 -264 0
-267 813 0
-267 264 0
268 -49 -712 0
-268 49 0
-268 712 0
269 -268 -814 0
-269 268 0
-269 814 0
270 -815 -267 0
-270 815 0
-270 267 0
271 -775 -720 0
-271 775 0
-271 720 0
272 -271 -786 0
-272 271 0
-272 786 0
273 -816 -270 0
-273 816 0
-273 270 0
274 -39 -806 0
-274 39 0
-274 806 0
275 -274 -814 0
-275 274 0
-275 814 0
276 -817 -273 0
-276 817 0
-276 273 0
277 -45 -702 0
-277 45 0
-277 702 0
278 -277 -752 0
-278 277 0
-278 752 0
279 -818 -276 0
-279 818 0
-279 276 0
280 -728 -1 0
-280 728 0
-280 1 0
281 -280 -729 0
-281 280 0
-281 729 0
282 -819 -279 0
-282 819 0
-282 279 0
283 -7 -5 0
-283 7 0
-283 5 0
284 -283 -20 0
-284 283 0
-284 20 0
285 -820 -282 0
-285 820 0
-285 282 0
286 -786 -44 0
-286 786 0
-286 44 0
287 -286 -17 0
-287 286 0
-287 17 0
288 -821 -285 0
-288 821 0
-288 285 0
289 -786 -812 0
-289 786 0
-289 812 0
290 -289 -17 0
-290 289 0
-290 17 0
291 -822 -288 0
-291 822 0
-291 288 0
292 -45 -717 0
-292 45 0
-292 717 0
293 -292 -727 0
-293 292 0
-293 727 0
294 -823 -291 0
-294 823 0
-294 291 0
295 -33 -23 0
-295 33 0
-295 23 0
296 -295 -27 0
-296 295 0
-296 27 0
297 -824 -294 0
-297 824 0
-297 294 0
298 -22 -1 0
-298 22 0
-298 1 0
299 -298 -3 0
-299 298 0
-299 3 0
300 -825 -297 0
-300 825 0
-300 297 0
301 -44 -826 0
-301 44 0
-301 826 0
302 -301 -36 0
-302 301 0
-302 36 0
303 -827 -300 0
-303 827 0
-303 300 0
304 -760 -806 0
-304 760 0
-304 806 0
305 -304 -40 0
-305 304 0
-305 40 0
306 -828 -303 0
-306 828 0
-306 303 0
307 -30 -829 0
-307 30 0
-307 829 0
308 -307 -28 0
-308 307 0
-308 28 0
309 -830 -306 0
-309 830 0
-309 306 0
310 -47 -829 0
-310 47 0
-310 829 0
311 -310 -760 0
-311 310 0
-311 760 0
312 -831 -309 0
-312 831 0
-312 309 0
313 -832 -14 0
-313 832 0
-313 14 0
314 -313 -1 0
-314 313 0
-314 1 0
315 -833 -312 0
-315 833 0
-315 312 0
316 -30 -708 0
-316 30 0
-316 708 0
317 -316 -812 0
-317 316 0
-317 812 0
318 -834 -315 0
-318 834 0
-318 315 0
319 -23 -11 0
-319 23 0
-319 11 0
320 -319 -736 0
-320 319 0
-320 736 0
321 -835 -318 0
-321 835 0
-321 318 0
322 -778 -20 0
-322 778 0
-322 20 0
323 -322 -745 0
-323 322 0
-323 745 0
324 -836 -321 0
-324 836 0
-324 321 0
325 -26 -708 0
-325 26 0
-325 708 0
326 -325 -747 0
-326 325 0
-326 747 0
327 -837 -324 0
-327 837 0
-327 324 0
328 -772 -15 0
-328 772 0
-328 15 0
329 -328 -43 0
-329 328 0
-329 43 0
330 -838 -327 0
-330 838 0
-330 327 0
331 -718 -9 0
-331 718 0
-331 9 0
332 -331 -10 0
-332 331 0
-332 10 0
333 -839 -330 0
-333 839 0
-333 330 0
334 -38 -760 0
-334 38 0
-334 760 0
335 -334 -3 0
-335 334 0
-335 3 0
336 -840 -333 0
-336 840 0
-336 333 0
337 -760 -22 0
-337 760 0
-337 22 0
338 -337 -19 0
-338 337 0
-338 19 0
339 -841 -336 0
-339 841 0
-339 336 0
340 -803 -5 0
-340 803 0
-340 5 0
341 -340 -842 0
-341 340 0
-341 842 0
342 -843 -339 0
-342 843 0
-342 339 0
343 -34 -22 0
-343 34 0
-343 22 0
344 -343 -768 0
-344 343 0
-344 768 0
345 -844 -342 0
-345 844 0
-345 342 0
346 -24 -23 0
-346 24 0
-346 23 0
347 -346 -32 0
-347 346 0
-347 32 0
348 -845 -345 0
-348 845 0
-348 345 0
349 -18 -16 0
-349 18 0
-349 16 0
350 -349 -752 0
-350 349 0
-350 752 0
351 -846 -348 0
-351 846 0
-351 348 0
352 -122 -725 0
-352 122 0
-352 725 0
353 -847 -351 0
-353 847 0
-353 351 0
354 -727 -23 0
-354 727 0
-354 23 0
355 -354 -842 0
-355 354 0
-355 842 0
356 -848 -353 0
-356 848 0
-356 353 0
357 -797 -16 0
-357 797 0
-357 16 0
358 -357 -744 0
-358 357 0
-358 744 0
359 -849 -356 0
-359 849 0
-359 356 0
360 -43 -714 0
-360 43 0
-360 714 0
361 -360 -842 0
-361 360 0
-361 842 0
362 -850 -359 0
-362 850 0
-362 359 0
363 -803 -25 0
-363 803 0
-363 25 0
364 -363 -10 0
-364 363 0
-364 10 0
365 -851 -362 0
-365 851 0
-365 362 0
366 -772 -742 0
-366 772 0
-366 742 0
367 -366 -32 0
-367 366 0
-367 32 0
368 -852 -365 0
-368 852 0
-368 365 0
369 -8 -3 0
-369 8 0
-369 3 0
370 -369 -803 0
-370 369 0
-370 803 0
371 -853 -368 0
-371 853 0
-371 368 0
372 -29 -723 0
-372 29 0
-372 723 0
373 -372 -814 0
-373 372 0
-373 814 0
374 -854 -371 0
-374 854 0
-374 371 0
375 -18 -698 0
-375 18 0
-375 698 0
376 -375 -17 0
-376 375 0
-376 17 0
377 -855 -374 0
-377 855 0
-377 374 0
378 -832 -856 0
-378 832 0
-378 856 0
379 -378 -40 0
-379 378 0
-379 40 0
380 -857 -377 0
-380 857 0
-380 377 0
381 -709 -750 0
-381 709 0
-381 750 0
382 -381 -725 0
-382 381 0
-382 725 0
383 -858 -380 0
-383 858 0
-383 380 0
384 -47 -756 0
-384 47 0
-384 756 0
385 -384 -786 0
-385 384 0
-385 786 0
386 -859 -383 0
-386 859 0
-386 383 0
387 -32 -714 0
-387 32 0
-387 714 0
388 -387 -42 0
-388 387 0
-388 42 0
389 -860 -386 0
-389 860 0
-389 386 0
390 -776 -45 0
-390 776 0
-390 45 0
391 -390 -704 0
-391 390 0
-391 704 0
392 -861 -389 0
-392 861 0
-392 389 0
393 -30 -806 0
-393 30 0
-393 806 0
394 -393 -814 0
-394 393 0
-394 814 0
395 -862 -392 0
-395 862 0
-395 392 0
396 -28 -717 0
-396 28 0
-396 717 0
397 -396 -747 0
-397 396 0
-397 747 0
398 -863 -395 0
-398 863 0
-398 395 0
399 -778 -19 0
-399 778 0
-399 19 0
400 -399 -6 0
-400 399 0
-400 6 0
401 -864 -398 0
-401 864 0
-401 398 0
402 -775 -723 0
-402 775 0
-402 723 0
403 -402 -28 0
-403 402 0
-403 28 0
404 -865 -401 0
-404 865 0
-404 401 0
405 -714 -1 0
-405 714 0
-405 1 0
406 -405 -747 0
-406 405 0
-406 747 0
407 -866 -404 0
-407 866 0
-407 404 0
408 -30 -720 0
-408 30 0
-408 720 0
409 -408 -40 0
-409 408 0
-409 40 0
410 -867 -407 0
-410 867 0
-410 407 0
411 -29 -22 0
-411 29 0
-411 22 0
412 -411 -752 0
-412 411 0
-412 752 0
413 -868 -410 0
-413 868 0
-413 410 0
414 -378 -768 0
-414 378 0
-414 768 0
415 -869 -413 0
-415 869 0
-415 413 0
416 -29 -21 0
-416 29 0
-416 21 0
417 -416 -20 0
-417 416 0
-417 20 0
418 -870 -415 0
-418 870 0
-418 415 0
419 -768 -24 0
-419 768 0
-419 24 0
420 -419 -10 0
-420 419 0
-420 10 0
421 -871 -418 0
-421 871 0
-421 418 0
422 -776 -38 0
-422 776 0
-422 38 0
423 -422 -800 0
-423 422 0
-423 800 0
424 -872 -421 0
-424 872 0
-424 421 0
425 -35 -709 0
-425 35 0
-425 709 0
426 -425 -760 0
-426 425 0
-426 760 0
427 -873 -424 0
-427 873 0
-427 424 0
428 -708 -12 0
-428 708 0
-428 12 0
429 -428 -33 0
-429 428 0
-429 33 0
430 -874 -427 0
-430 874 0
-430 427 0
431 -795 -702 0
-431 795 0
-431 702 0
432 -431 -715 0
-432 431 0
-432 715 0
433 -875 -430 0
-433 875 0
-433 430 0
434 -797 -3 0
-434 797 0
-434 3 0
435 -434 -42 0
-435 434 0
-435 42 0
436 -876 -433 0
-436 876 0
-436 433 0
437 -752 -18 0
-437 752 0
-437 18 0
438 -437 -5 0
-438 437 0
-438 5 0
439 -877 -436 0
-439 877 0
-439 436 0
440 -44 -702 0
-440 44 0
-440 702 0
441 -440 -725 0
-441 440 0
-441 725 0
442 -878 -439 0
-442 878 0
-442 439 0
443 -856 -718 0
-443 856 0
-443 718 0
444 -443 -725 0
-444 443 0
-444 725 0
445 -879 -442 0
-445 879 0
-445 442 0
446 -797 -775 0
-446 797 0
-446 775 0
447 -446 -752 0
-447 446 0
-447 752 0
448 -880 -445 0
-448 880 0
-448 445 0
449 -14 -747 0
-449 14 0
-449 747 0
450 -449 -42 0
-450 449 0
-450 42 0
451 -881 -448 0
-451 881 0
-451 448 0
452 -826 -13 0
-452 826 0
-452 13 0
453 -452 -17 0
-453 452 0
-453 17 0
454 -882 -451 0
-454 882 0
-454 451 0
455 -778 -803 0
-455 778 0
-455 803 0
456 -455 -842 0
-456 455 0
-456 842 0
457 -883 -454 0
-457 883 0
-457 454 0
458 -756 -3 0
-458 756 0
-458 3 0
459 -458 -27 0
-459 458 0
-459 27 0
460 -884 -457 0
-460 884 0
-460 457 0
461 -26 -15 0
-461 26 0
-461 15 0
462 -461 -46 0
-462 461 0
-462 46 0
463 -885 -460 0
-463 885 0
-463 460 0
464 -24 -702 0
-464 24 0
-464 702 0
465 -464 -27 0
-465 464 0
-465 27 0
466 -886 -463 0
-466 886 0
-466 463 0
467 -47 -750 0
-467 47 0
-467 750 0
468 -467 -723 0
-468 467 0
-468 723 0
469 -887 -466 0
-469 887 0
-469 466 0
470 -812 -750 0
-470 812 0
-470 750 0
471 -470 -19 0
-471 470 0
-471 19 0
472 -888 -469 0
-472 888 0
-472 469 0
473 -26 -24 0
-473 26 0
-473 24 0
474 -473 -42 0
-474 473 0
-474 42 0
475 -889 -472 0
-475 889 0
-475 472 0
476 -50 -712 0
-476 50 0
-476 712 0
477 -476 -10 0
-477 476 0
-477 10 0
478 -890 -475 0
-478 890 0
-478 475 0
479 -48 -14 0
-479 48 0
-479 14 0
480 -479 -760 0
-480 479 0
-480 760 0
481 -891 -478 0
-481 891 0
-481 478 0
482 -43 -30 0
-482 43 0
-482 30 0
483 -482 -842 0
-483 482 0
-483 842 0
484 -892 -481 0
-484 892 0
-484 481 0
485 -795 -714 0
-485 795 0
-485 714 0
486 -485 -776 0
-486 485 0
-486 776 0
487 -893 -484 0
-487 893 0
-487 484 0
488 -735 -727 0
-488 735 0
-488 727 0
489 -488 -17 0
-489 488 0
-489 17 0
490 -894 -487 0
-490 894 0
-490 487 0
491 -44 -717 0
-491 44 0
-491 717 0
492 -491 -803 0
-492 491 0
-492 803 0
493 -895 -490 0
-493 895 0
-493 490 0
494 -47 -33 0
-494 47 0
-494 33 0
495 -494 -720 0
-495 494 0
-495 720 0
496 -896 -493 0
-496 896 0
-496 493 0
497 -778 -38 0
-497 778 0
-497 38 0
498 -497 -46 0
-498 497 0
-498 46 0
499 -897 -496 0
-499 897 0
-499 496 0
500 -778 -699 0
-500 778 0
-500 699 0
501 -500 -708 0
-501 500 0
-501 708 0
502 -898 -499 0
-502 898 0
-502 499 0
503 -786 -742 0
-503 786 0
-503 742 0
504 -503 -729 0
-504 503 0
-504 729 0
505 -899 -502 0
-505 899 0
-505 502 0
506 -736 -699 0
-506 736 0
-506 699 0
507 -506 -797 0
-507 506 0
-507 797 0
508 -900 -505 0
-508 900 0
-508 505 0
509 -384 -735 0
-509 384 0
-509 735 0
510 -901 -508 0
-510 901 0
-510 508 0
511 -735 -2 0
-511 735 0
-511 2 0
512 -511 -902 0
-512 511 0
-512 902 0
513 -903 -510 0
-513 903 0
-513 510 0
514 -16 -1 0
-514 16 0
-514 1 0
515 -514 -715 0
-515 514 0
-515 715 0
516 -904 -513 0
-516 904 0
-516 513 0
517 -797 -26 0
-517 797 0
-517 26 0
518 -517 -33 0
-518 517 0
-518 33 0
519 -905 -516 0
-519 905 0
-519 516 0
520 -45 -22 0
-520 45 0
-520 22 0
521 -520 -27 0
-521 520 0
-521 27 0
522 -906 -519 0
-522 906 0
-522 519 0
523 -715 -17 0
-523 715 0
-523 17 0
524 -523 -842 0
-524 523 0
-524 842 0
525 -907 -522 0
-525 907 0
-525 522 0
526 -735 -826 0
-526 735 0
-526 826 0
527 -526 -7 0
-527 526 0
-527 7 0
528 -908 -525 0
-528 908 0
-528 525 0
529 -708 -806 0
-529 708 0
-529 806 0
530 -529 -7 0
-530 529 0
-530 7 0
531 -909 -528 0
-531 909 0
-531 528 0
532 -25 -14 0
-532 25 0
-532 14 0
533 -532 -720 0
-533 532 0
-533 720 0
534 -910 -531 0
-534 910 0
-534 531 0
535 -37 -706 0
-535 37 0
-535 706 0
536 -535 -36 0
-536 535 0
-536 36 0
537 -911 -534 0
-537 911 0
-537 534 0
538 -728 -4 0
-538 728 0
-538 4 0
539 -538 -33 0
-539 538 0
-539 33 0
540 -912 -537 0
-540 912 0
-540 537 0
541 -16 -4 0
-541 16 0
-541 4 0
542 -541 -31 0
-542 541 0
-542 31 0
543 -913 -540 0
-543 913 0
-543 540 0
544 -738 -718 0
-544 738 0
-544 718 0
545 -544 -8 0
-545 544 0
-545 8 0
546 -914 -543 0
-546 914 0
-546 543 0
547 -768 -6 0
-547 768 0
-547 6 0
548 -547 -842 0
-548 547 0
-548 842 0
549 -915 -546 0
-549 915 0
-549 546 0
550 -28 -720 0
-550 28 0
-550 720 0
551 -550 -41 0
-551 550 0
-551 41 0
552 -916 -549 0
-552 916 0
-552 549 0
553 -738 -723 0
-553 738 0
-553 723 0
554 -553 -26 0
-554 553 0
-554 26 0
555 -917 -552 0
-555 917 0
-555 552 0
556 -742 -4 0
-556 742 0
-556 4 0
557 -556 -720 0
-557 556 0
-557 720 0
558 -918 -555 0
-558 918 0
-558 555 0
559 -738 -714 0
-559 738 0
-559 714 0
560 -559 -16 0
-560 559 0
-560 16 0
561 -919 -558 0
-561 919 0
-561 558 0
562 -775 -772 0
-562 775 0
-562 772 0
563 -562 -48 0
-563 562 0
-563 48 0
564 -920 -561 0
-564 920 0
-564 561 0
565 -37 -806 0
-565 37 0
-565 806 0
566 -565 -43 0
-566 565 0
-566 43 0
567 -921 -564 0
-567 921 0
-567 564 0
568 -795 -22 0
-568 795 0
-568 22 0
569 -568 -10 0
-569 568 0
-569 10 0
570 -922 -567 0
-570 922 0
-570 567 0
571 -24 -13 0
-571 24 0
-571 13 0
572 -571 -33 0
-572 571 0
-572 33 0
573 -923 -570 0
-573 923 0
-573 570 0
574 -12 -1 0
-574 12 0
-574 1 0
575 -574 -49 0
-575 574 0
-575 49 0
576 -924 -573 0
-576 924 0
-576 573 0
577 -797 -829 0
-577 797 0
-577 829 0
578 -577 -786 0
-578 577 0
-578 786 0
579 -925 -576 0
-579 925 0
-579 576 0
580 -778 -13 0
-580 778 0
-580 13 0
581 -580 -24 0
-581 580 0
-581 24 0
582 -926 -579 0
-582 926 0
-582 579 0
583 -46 -19 0
-583 46 0
-583 19 0
584 -583 -10 0
-584 583 0
-584 10 0
585 -927 -582 0
-585 927 0
-585 582 0
586 -37 -13 0
-586 37 0
-586 13 0
587 -586 -744 0
-587 586 0
-587 744 0
588 -928 -585 0
-588 928 0
-588 585 0
589 -21 -1 0
-589 21 0
-589 1 0
590 -589 -709 0
-590 589 0
-590 709 0
591 -929 -588 0
-591 929 0
-591 588 0
592 -48 -31 0
-592 48 0
-592 31 0
593 -592 -786 0
-593 592 0
-593 786 0
594 -930 -591 0
-594 930 0
-594 591 0
595 -47 -708 0
-595 47 0
-595 708 0
596 -595 -6 0
-596 595 0
-596 6 0
597 -931 -594 0
-597 931 0
-597 594 0
598 -775 -4 0
-598 775 0
-598 4 0
599 -598 -728 0
-599 598 0
-599 728 0
600 -932 -597 0
-600 932 0
-600 597 0
601 -756 -13 0
-601 756 0
-601 13 0
602 -601 -733 0
-602 601 0
-602 733 0
603 -933 -600 0
-603 933 0
-603 600 0
604 -797 -699 0
-604 797 0
-604 699 0
605 -604 -24 0
-605 604 0
-605 24 0
606 -934 -603 0
-606 934 0
-606 603 0
607 -797 -30 0
-607 797 0
-607 30 0
608 -607 -842 0
-608 607 0
-608 842 0
609 -935 -606 0
-609 935 0
-609 606 0
610 -38 -37 0
-610 38 0
-610 37 0
611 -610 -41 0
-611 610 0
-611 41 0
612 -936 -609 0
-612 936 0
-612 609 0
613 -778 -720 0
-613 778 0
-613 720 0
614 -613 -744 0
-614 613 0
-614 744 0
615 -937 -612 0
-615 937 0
-615 612 0
616 -778 -756 0
-616 778 0
-616 756 0
617 -616 -708 0
-617 616 0
-617 708 0
618 -938 -615 0
-618 938 0
-618 615 0
619 -33 -7 0
-619 33 0
-619 7 0
620 -619 -27 0
-620 619 0
-620 27 0
621 -939 -618 0
-621 939 0
-621 618 0
622 -738 -829 0
-622 738 0
-622 829 0
623 -622 -36 0
-623 622 0
-623 36 0
624 -940 -621 0
-624 940 0
-624 621 0
625 -37 -11 0
-625 37 0
-625 11 0
626 -625 -45 0
-626 625 0
-626 45 0
627 -941 -624 0
-627 941 0
-627 624 0
628 -722 -806 0
-628 722 0
-628 806 0
629 -628 -3 0
-629 628 0
-629 3 0
630 -942 -627 0
-630 942 0
-630 627 0
631 -32 -829 0
-631 32 0
-631 829 0
632 -631 -704 0
-632 631 0
-632 704 0
633 -943 -630 0
-633 943 0
-633 630 0
634 -826 -720 0
-634 826 0
-634 720 0
635 -634 -744 0
-635 634 0
-635 744 0
636 -944 -633 0
-636 944 0
-636 633 0
637 -47 -738 0
-637 47 0
-637 738 0
638 -637 -48 0
-638 637 0
-638 48 0
639 -945 -636 0
-639 945 0
-639 636 0
640 -756 -6 0
-640 756 0
-640 6 0
641 -640 -800 0
-641 640 0
-641 800 0
642 -946 -639 0
-642 946 0
-642 639 0
643 -20 -706 0
-643 20 0
-643 706 0
644 -643 -729 0
-644 643 0
-644 729 0
645 -947 -642 0
-645 947 0
-645 642 0
646 -34 -736 0
-646 34 0
-646 736 0
647 -646 -20 0
-647 646 0
-647 20 0
648 -948 -645 0
-648 948 0
-648 645 0
649 -38 -9 0
-649 38 0
-649 9 0
650 -649 -728 0
-650 649 0
-650 728 0
651 -949 -648 0
-651 949 0
-651 648 0
652 -760 -15 0
-652 760 0
-652 15 0
653 -652 -19 0
-653 652 0
-653 19 0
654 -950 -651 0
-654 950 0
-654 651 0
655 -33 -31 0
-655 33 0
-655 31 0
656 -655 -745 0
-656 655 0
-656 745 0
657 -951 -654 0
-657 951 0
-657 654 0
658 -775 -768 0
-658 775 0
-658 768 0
659 -658 -10 0
-659 658 0
-659 10 0
660 -952 -657 0
-660 952 0
-660 657 0
661 -786 -715 0
-661 786 0
-661 715 0
662 -661 -50 0
-662 661 0
-662 50 0
663 -953 -660 0
-663 953 0
-663 660 0
664 -46 -35 0
-664 46 0
-664 35 0
665 -664 -2 0
-665 664 0
-665 2 0
666 -954 -663 0
-666 954 0
-666 663 0
667 -16 -14 0
-667 16 0
-667 14 0
668 -667 -812 0
-668 667 0
-668 812 0
669 -955 -666 0
-669 955 0
-669 666 0
670 -47 -14 0
-670 47 0
-670 14 0
671 -670 -6 0
-671 670 0
-671 6 0
672 -956 -669 0
-672 956 0
-672 669 0
673 -842 -722 0
-673 842 0
-673 722 0
674 -673 -704 0
-674 673 0
-674 704 0
675 -957 -672 0
-675 957 0
-675 672 0
676 -832 -708 0
-676 832 0
-676 708 0
677 -676 -826 0
-677 676 0
-677 826 0
678 -958 -675 0
-678 958 0
-678 675 0
679 -77 -41 0
-679 77 0
-679 41 0
680 -959 -678 0
-680 959 0
-680 678 0
681 -48 -752 0
-681 48 0
-681 752 0
682 -681 -49 0
-682 681 0
-682 49 0
683 -960 -680 0
-683 960 0
-683 680 0
684 -21 -13 0
-684 21 0
-684 13 0
685 -684 -6 0
-685 684 0
-685 6 0
686 -961 -683 0
-686 961 0
-686 683 0
687 -12 -5 0
-687 12 0
-687 5 0
688 -687 -725 0
-688 687 0
-688 725 0
689 -962 -686 0
-689 962 0
-689 686 0
690 -500 -28 0
-690 500 0
-690 28 0
691 -963 -689 0
-691 963 0
-691 689 0
692 -46 -5 0
-692 46 0
-692 5 0
693 -692 -842 0
-693 692 0
-693 842 0
694 -964 -691 0
-694 964 0
-694 691 0
695 -714 -750 0
-695 714 0
-695 750 0
696 -695 -742 0
-696 695 0
-696 742 0
697 -965 -694 0
-697 965 0
-697 694 0
-698 -5 0
698 5 0
-699 -4 0
699 4 0
-700 -54 0
700 54 0
-701 -52 0
701 52 0
-702 -7 0
702 7 0
-703 -57 0
703 57 0
-704 -10 0
704 10 0
-705 -60 0
705 60 0
-706 -12 0
706 12 0
-707 -63 0
707 63 0
-708 -14 0
708 14 0
-709 -15 0
709 15 0
-710 -66 0
710 66 0
-711 -69 0
711 69 0
-712 -9 0
712 9 0
-713 -72 0
713 72 0
-714 -18 0
714 18 0
-715 -20 0
715 20 0
-716 -75 0
716 75 0
-717 -21 0
717 21 0
-718 -22 0
718 22 0
-719 -78 0
719 78 0
-720 -3 0
720 3 0
-721 -81 0
721 81 0
-722 -24 0
722 24 0
-723 -23 0
723 23 0
-724 -84 0
724 84 0
-725 -27 0
725 27 0
-726 -87 0
726 87 0
-727 -29 0
727 29 0
-728 -28 0
728 28 0
-729 -6 0
729 6 0
-730 -90 0
730 90 0
-731 -93 0
731 93 0
-732 -96 0
732 96 0
-733 -32 0
733 32 0
-734 -99 0
734 99 0
-735 -34 0
735 34 0
-736 -30 0
736 30 0
-737 -102 0
737 102 0
-738 -35 0
738 35 0
-739 -105 0
739 105 0
-740 -108 0
740 108 0
-741 -111 0
741 111 0
-742 -8 0
742 8 0
-743 -114 0
743 114 0
-744 -40 0
744 40 0
-745 -17 0
745 17 0
-746 -117 0
746 117 0
-747 -2 0
747 2 0
-748 -120 0
748 120 0
-749 -123 0
749 123 0
-750 -11 0
750 11 0
-751 -126 0
751 126 0
-752 -36 0
752 36 0
-753 -129 0
753 129 0
-754 -132 0
754 132 0
-755 -135 0
755 135 0
-756 -26 0
756 26 0
-757 -138 0
757 138 0
-758 -141 0
758 141 0
-759 -144 0
759 144 0
-760 -25 0
760 25 0
-761 -147 0
761 147 0
-762 -150 0
762 150 0
-763 -153 0
763 153 0
-764 -156 0
764 156 0
-765 -159 0
765 159 0
-766 -162 0
766 162 0
-767 -165 0
767 165 0
-768 -43 0
768 43 0
-769 -168 0
769 168 0
-770 -171 0
770 171 0
-771 -174 0
771 174 0
-772 -38 0
772 38 0
-773 -177 0
773 177 0
-774 -180 0
774 180 0
-775 -45 0
775 45 0
-776 -46 0
776 46 0
-777 -183 0
777 183 0
-778 -47 0
778 47 0
-779 -186 0
779 186 0
-780 -189 0
780 189 0
-781 -192 0
781 192 0
-782 -195 0
782 195 0
-783 -198 0
783 198 0
-784 -201 0
784 201 0
-785 -204 0
785 204 0
-786 -49 0
786 49 0
-787 -207 0
787 207 0
-788 -210 0
788 210 0
-789 -213 0
789 213 0
-790 -216 0
790 216 0
-791 -219 0
791 219 0
-792 -222 0
792 222 0
-793 -225 0
793 225 0
-794 -228 0
794 228 0
-795 -37 0
795 37 0
-796 -231 0
796 231 0
-797 -48 0
797 48 0
-798 -234 0
798 234 0
-799 -237 0
799 237 0
-800 -42 0
800 42 0
-801 -240 0
801 240 0
-802 -243 0
802 243 0
-803 -39 0
803 39 0
-804 -246 0
804 246 0
-805 -249 0
805 249 0
-806 -1 0
806 1 0
-807 -252 0
807 252 0
-808 -254 0
808 254 0
-809 -257 0
809 257 0
-810 -260 0
810 260 0
-811 -263 0
811 263 0
-812 -33 0
812 33 0
-813 -266 0
813 266 0
-814 -41 0
814 41 0
-815 -269 0
815 269 0
-816 -272 0
816 272 0
-817 -275 0
817 275 0
-818 -278 0
818 278 0
-819 -281 0
819 281 0
-820 -284 0
820 284 0
-821 -287 0
821 287 0
-822 -290 0
822 290 0
-823 -293 0
823 293 0
-824 -296 0
824 296 0
-825 -299 0
825 299 0
-826 -16 0
826 16 0
-827 -302 0
827 302 0
-828 -305 0
828 305 0
-829 -13 0
829 13 0
-830 -308 0
830 308 0
-831 -311 0
831 311 0
-832 -44 0
832 44 0
-833 -314 0
833 314 0
-834 -317 0
834 317 0
-835 -320 0
835 320 0
-836 -323 0
836 323 0
-837 -326 0
837 326 0
-838 -329 0
838 329 0
-839 -332 0
839 332 0
-840 -335 0
840 335 0
-841 -338 0
841 338 0
-842 -50 0
842 50 0
-843 -341 0
843 341 0
-844 -344 0
844 344 0
-845 -347 0
845 347 0
-846 -350 0
846 350 0
-847 -352 0
847 352 0
-848 -355 0
848 355 0
-849 -358 0
849 358 0
-850 -361 0
850 361 0
-851 -364 0
851 364 0
-852 -367 0
852 367 0
-853 -370 0
853 370 0
-854 -373 0
854 373 0
-855 -376 0
855 376 0
-856 -31 0
856 31 0
-857 -379 0
857 379 0
-858 -382 0
858 382 0
-859 -385 0
859 385 0
-860 -388 0
860 388 0
-861 -391 0
861 391 0
-862 -394 0
862 394 0
-863 -397 0
863 397 0
-864 -400 0
864 400 0
-865 -403 0
865 403 0
-866 -406 0
866 406 0
-867 -409 0
867 409 0
-868 -412 0
868 412 0
-869 -414 0
869 414 0
-870 -417 0
870 417 0
-871 -420 0
871 420 0
-872 -423 0
872 423 0
-873 -426 0
873 426 0
-874 -429 0
874 429 0
-875 -432 0
875 432 0
-876 -435 0
876 435 0
-877 -438 0
877 438 0
-878 -441 0
878 441 0
-879 -444 0
879 444 0
-880 -447 0
880 447 0
-881 -450 0
881 450 0
-882 -453 0
882 453 0
-883 -456 0
883 456 0
-884 -459 0
884 459 0
-885 -462 0
885 462 0
-886 -465 0
886 465 0
-887 -468 0
887 468 0
-888 -471 0
888 471 0
-889 -474 0
889 474 0
-890 -477 0
890 477 0
-891 -480 0
891 480 0
-892 -483 0
892 483 0
-893 -486 0
893 486 0
-894 -489 0
894 489 0
-895 -492 0
895 492 0
-896 -495 0
896 495 0
-897 -498 0
897 498 0
-898 -501 0
898 501 0
-899 -504 0
899 504 0
-900 -507 0
900 507 0
-901 -509 0
901 509 0
-902 -19 0
902 19 0
-903 -512 0
903 512 0
-904 -515 0
904 515 0
-905 -518 0
905 518 0
-906 -521 0
906 521 0
-907 -524 0
907 524 0
-908 -527 0
908 527 0
-909 -530 0
909 530 0
-910 -533 0
910 533 0
-911 -536 0
911 536 0
-912 -539 0
912 539 0
-913 -542 0
913 542 0
-914 -545 0
914 545 0
-915 -548 0
915 548 0
-916 -551 0
916 551 0
-917 -554 0
917 554 0
-918 -557 0
918 557 0
-919 -560 0
919 560 0
-920 -563 0
920 563 0
-921 -566 0
921 566 0
-922 -569 0
922 569 0
-923 -572 0
923 572 0
-924 -575 0
924 575 0
-925 -578 0
925 578 0
-926 -581 0
926 581 0
-927 -584 0
927 584 0
-928 -587 0
928 587 0
-929 -590 0
929 590 0
-930 -593 0
930 593 0
-931 -596 0
931 596 0
-932 -599 0
932 599 0
-933 -602 0
933 602 0
-934 -605 0
934 605 0
-935 -608 0
935 608 0
-936 -611 0
936 611 0
-937 -614 0
937 614 0
-938 -617 0
938 617 0
-939 -620 0
939 620 0
-940 -623 0
940 623 0
-941 -626 0
941 626 0
-942 -629 0
942 629 0
-943 -632 0
943 632 0
-944 -635 0
944 635 0
-945 -638 0
945 638 0
-946 -641 0
946 641 0
-947 -644 0
947 644 0
-948 -647 0
948 647 0
-949 -650 0
949 650 0
-950 -653 0
950 653 0
-951 -656 0
951 656 0
-952 -659 0
952 659 0
-953 -662 0
953 662 0
-954 -665 0
954 665 0
-955 -668 0
955 668 0
-956 -671 0
956 671 0
-957 -674 0
957 674 0
-958 -677 0
958 677 0
-959 -679 0
959 679 0
-960 -682 0
960 682 0
-961 -685 0
961 685 0
-962 -688 0
962 688 0
-963 -690 0
963 690 0
-964 -693 0
964 693 0
-965 -696 0
965 696 0
697 0
